param set_len = 22;
param target_sum = 5844434134;
param values := [1] 425778829 [2] 1048120672 [3] 990789927 [4] 237323362 [5] 595735671 [6] 591497524 [7] 571983121 [8] 456990773 [9] 982182752 [10] 566238560 [11] 193972870 [12] 269652604 [13] 39934054 [14] 253796634 [15] 475509107 [16] 165701980 [17] 365600934 [18] 520390272 [19] 1047357184 [20] 92938533 [21] 473012684 [22] 481399155 ;
